%%%%%%%%%%%%%%%%%%%%%%%%%%%%%%%%%%%%%%%%%%%%%%%%%%%%%%%%%%%%%%%%%%%%%%%%%
%FILE DATA:	Soccer Computational Problem for MiniZinc Models
%AUTHORS:	Robinson Duque, Alejandro Arbelaez, Juan Francisco Díaz
%CONTACT:  	robinson.duque@correounivalle.edu.co 
%LAST UPDATE:	May, 2018 
%ROUND ROBIN:2
%TEAMS:20
%PRESENT FIXTURE:23
%FIXTURES TO PLAY:15
%GAMES TO PLAY:150
%%%%%%%%%%%%%%%%%%%%%%%%%%%%%%%%%%%%%%%%%%%%%%%%%%%%%%%%%%%%%%%%%%%%%%%%%
%Number of teams:
n=20;

%For the purpose of our models, we offer two representations of the games to play, namely fixtures and games to play:

%Fixtures to play:
%fixtures=[|0,0,0,1,1,1,0,1,0,1,1,1,1,1,1,1,1,1,1,1
%|0,0,1,1,1,0,1,0,1,0,1,1,1,1,1,1,1,1,1,1
%|0,1,0,1,1,1,1,1,1,1,0,1,1,0,1,0,1,1,1,1
%|1,1,1,0,1,1,0,1,0,1,0,1,0,1,1,1,1,1,1,1
%|1,1,1,1,0,1,1,1,1,1,0,1,1,1,1,1,1,0,0,0
%|1,0,1,1,1,0,0,1,1,1,1,1,0,1,1,1,1,0,1,1
%|0,1,1,0,1,0,0,0,1,1,1,1,1,1,1,1,1,1,1,1
%|1,0,1,1,1,1,0,0,1,1,1,1,1,1,0,1,1,0,1,1
%|0,1,1,0,1,1,1,1,0,1,1,0,1,1,1,0,1,1,1,1
%|1,0,1,1,1,1,1,1,1,0,0,1,0,1,1,1,1,1,1,0
%|1,1,0,0,0,1,1,1,1,0,0,1,1,1,1,1,1,1,1,1
%|1,1,1,1,1,1,1,1,0,1,1,0,1,0,1,1,1,0,1,0
%|1,1,1,0,1,0,1,1,1,0,1,1,0,0,1,1,1,1,1,1
%|1,1,0,1,1,1,1,1,1,1,1,0,0,0,1,1,1,1,0,1
%|1,1,1,1,1,1,1,0,1,1,1,1,1,1,0,0,0,1,0,1
%|1,1,0,1,1,1,1,1,0,1,1,1,1,1,0,0,0,1,1,1
%|1,1,1,1,1,1,1,1,1,1,1,1,1,1,0,0,0,1,0,0
%|1,1,1,1,0,0,1,0,1,1,1,0,1,1,1,1,1,0,1,1
%|1,1,1,1,0,1,1,1,1,1,1,1,1,0,0,1,0,1,0,1
%|1,1,1,1,0,1,1,1,1,0,1,0,1,1,1,1,0,1,1,0|];

%Played Fixtures:
%PlayedFixtures=[|0,2,2,1,1,1,2,1,2,1,1,1,1,1,1,1,1,1,1,1
%|2,0,1,1,1,2,1,2,1,2,1,1,1,1,1,1,1,1,1,1
%|2,1,0,1,1,1,1,1,1,1,2,1,1,2,1,2,1,1,1,1
%|1,1,1,0,1,1,2,1,2,1,2,1,2,1,1,1,1,1,1,1
%|1,1,1,1,0,1,1,1,1,1,2,1,1,1,1,1,1,2,2,2
%|1,2,1,1,1,0,2,1,1,1,1,1,2,1,1,1,1,2,1,1
%|2,1,1,2,1,2,0,2,1,1,1,1,1,1,1,1,1,1,1,1
%|1,2,1,1,1,1,2,0,1,1,1,1,1,1,2,1,1,2,1,1
%|2,1,1,2,1,1,1,1,0,1,1,2,1,1,1,2,1,1,1,1
%|1,2,1,1,1,1,1,1,1,0,2,1,2,1,1,1,1,1,1,2
%|1,1,2,2,2,1,1,1,1,2,0,1,1,1,1,1,1,1,1,1
%|1,1,1,1,1,1,1,1,2,1,1,0,1,2,1,1,1,2,1,2
%|1,1,1,2,1,2,1,1,1,2,1,1,0,2,1,1,1,1,1,1
%|1,1,2,1,1,1,1,1,1,1,1,2,2,0,1,1,1,1,2,1
%|1,1,1,1,1,1,1,2,1,1,1,1,1,1,0,2,2,1,2,1
%|1,1,2,1,1,1,1,1,2,1,1,1,1,1,2,0,2,1,1,1
%|1,1,1,1,1,1,1,1,1,1,1,1,1,1,2,2,0,1,2,2
%|1,1,1,1,2,2,1,2,1,1,1,2,1,1,1,1,1,0,1,1
%|1,1,1,1,2,1,1,1,1,1,1,1,1,2,2,1,2,1,0,1
%|1,1,1,1,2,1,1,1,1,2,1,2,1,1,1,1,2,1,1,0|];

%Games to play:
games=[|3,2|4,1|4,2|4,3|5,1|5,2|5,3|5,4|6,1|6,3|6,4|6,5|7,2|7,3|7,5|8,1|8,3|8,4|8,5|8,6|9,2|9,3|9,5|9,6|9,7|9,8|10,1|10,3|10,4|10,5|10,6|10,7|10,8|10,9|11,1|11,2|11,6|11,7|11,8|11,9|12,1|12,2|12,3|12,4|12,5|12,6|12,7|12,8|12,10|12,11|13,1|13,2|13,3|13,5|13,7|13,8|13,9|13,11|13,12|14,1|14,2|14,4|14,5|14,6|14,7|14,8|14,9|14,10|14,11|15,1|15,2|15,3|15,4|15,5|15,6|15,7|15,9|15,10|15,11|15,12|15,13|15,14|16,1|16,2|16,4|16,5|16,6|16,7|16,8|16,10|16,11|16,12|16,13|16,14|17,1|17,2|17,3|17,4|17,5|17,6|17,7|17,8|17,9|17,10|17,11|17,12|17,13|17,14|18,1|18,2|18,3|18,4|18,7|18,9|18,10|18,11|18,13|18,14|18,15|18,16|18,17|19,1|19,2|19,3|19,4|19,6|19,7|19,8|19,9|19,10|19,11|19,12|19,13|19,16|19,18|20,1|20,2|20,3|20,4|20,6|20,7|20,8|20,9|20,11|20,13|20,14|20,15|20,16|20,18|20,19|];

%Played Games:
%PlayedGames=[|2,1|2,1|3,1|3,1|3,2|4,1|4,2|4,3|5,1|5,2|5,3|5,4|6,1|6,2|6,2|6,3|6,4|6,5|7,1|7,1|7,2|7,3|7,4|7,4|7,5|7,6|7,6|8,1|8,2|8,2|8,3|8,4|8,5|8,6|8,7|8,7|9,1|9,1|9,2|9,3|9,4|9,4|9,5|9,6|9,7|9,8|10,1|10,2|10,2|10,3|10,4|10,5|10,6|10,7|10,8|10,9|11,1|11,2|11,3|11,3|11,4|11,4|11,5|11,5|11,6|11,7|11,8|11,9|11,10|11,10|12,1|12,2|12,3|12,4|12,5|12,6|12,7|12,8|12,9|12,9|12,10|12,11|13,1|13,2|13,3|13,4|13,4|13,5|13,6|13,6|13,7|13,8|13,9|13,10|13,10|13,11|13,12|14,1|14,2|14,3|14,3|14,4|14,5|14,6|14,7|14,8|14,9|14,10|14,11|14,12|14,12|14,13|14,13|15,1|15,2|15,3|15,4|15,5|15,6|15,7|15,8|15,8|15,9|15,10|15,11|15,12|15,13|15,14|16,1|16,2|16,3|16,3|16,4|16,5|16,6|16,7|16,8|16,9|16,9|16,10|16,11|16,12|16,13|16,14|16,15|16,15|17,1|17,2|17,3|17,4|17,5|17,6|17,7|17,8|17,9|17,10|17,11|17,12|17,13|17,14|17,15|17,15|17,16|17,16|18,1|18,2|18,3|18,4|18,5|18,5|18,6|18,6|18,7|18,8|18,8|18,9|18,10|18,11|18,12|18,12|18,13|18,14|18,15|18,16|18,17|19,1|19,2|19,3|19,4|19,5|19,5|19,6|19,7|19,8|19,9|19,10|19,11|19,12|19,13|19,14|19,14|19,15|19,15|19,16|19,17|19,17|19,18|20,1|20,2|20,3|20,4|20,5|20,5|20,6|20,7|20,8|20,9|20,10|20,10|20,11|20,12|20,12|20,13|20,14|20,15|20,16|20,17|20,17|20,18|20,19|];

%Played Games - Win Results:
%% 0  0  0  0  0  0  0  1  0  0  0  1  0  0  0  0  0  1  0  0
%% 0  0  0  0  0  0  0  0  0  0  0  1  0  0  0  0  0  0  0  0
%% 0  1  0  0  0  0  0  0  0  0  0  1  1  0  0  0  0  0  0  0
%% 0  0  0  0  0  0  0  0  0  0  0  0  0  0  0  0  0  0  0  0
%% 0  0  1  0  0  1  0  1  1  0  0  0  1  0  0  0  0  0  1  0
%% 0  0  0  0  0  0  0  0  0  1  0  0  0  0  0  0  0  0  0  0
%% 0  0  0  0  0  0  0  0  0  0  0  0  1  0  0  0  0  0  0  0
%% 0  0  0  0  0  1  0  0  0  1  0  0  0  0  0  0  0  0  0  0
%% 0  1  0  0  0  0  0  1  0  1  0  0  0  0  0  0  0  0  0  0
%% 0  0  0  0  0  0  1  0  0  0  0  0  0  0  0  0  0  0  0  0
%% 1  1  0  0  0  0  0  0  0  0  0  1  0  0  0  0  0  1  1  0
%% 0  0  0  0  0  0  0  0  0  0  0  0  1  0  0  0  0  0  0  0
%% 0  0  0  0  0  0  0  0  0  0  0  0  0  0  0  0  0  0  0  0
%% 0  0  0  1  0  1  0  0  1  1  1  0  0  0  0  1  0  1  1  0
%% 1  1  0  0  0  0  0  0  1  0  1  1  0  0  0  0  0  1  0  0
%% 0  1  0  0  0  0  1  0  0  0  0  0  0  0  1  0  0  1  0  1
%% 1  0  1  1  0  1  1  1  1  0  1  0  0  0  0  0  0  0  0  0
%% 0  0  0  0  0  0  0  0  0  0  0  0  0  0  0  0  0  0  0  0
%% 1  0  1  0  0  0  1  0  0  0  0  0  1  0  0  0  0  0  0  0
%% 0  1  1  0  0  0  0  0  0  0  1  0  0  0  0  0  2  0  0  0
%Played Games - Tie Results:
%% 0  2  2  1  1  1  2  0  2  1  0  0  1  1  0  1  0  0  0  1
%% 2  0  0  1  1  2  1  2  0  2  0  0  1  1  0  0  1  1  1  0
%% 2  0  0  1  0  1  1  1  1  1  2  0  0  2  1  2  0  1  0  0
%% 1  1  1  0  1  1  2  1  2  1  2  1  2  0  1  1  0  1  1  1
%% 1  1  0  1  0  0  1  0  0  1  2  1  0  1  1  1  1  2  1  2
%% 1  2  1  1  0  0  2  0  1  0  1  1  2  0  1  1  0  2  1  1
%% 2  1  1  2  1  2  0  2  1  0  1  1  0  1  1  0  0  1  0  1
%% 0  2  1  1  0  0  2  0  0  0  1  1  1  1  2  1  0  2  1  1
%% 2  0  1  2  0  1  1  0  0  0  1  2  1  0  0  2  0  1  1  1
%% 1  2  1  1  1  0  0  0  0  0  2  1  2  0  1  1  1  1  1  2
%% 0  0  2  2  2  1  1  1  1  2  0  0  1  0  0  1  0  0  0  0
%% 0  0  0  1  1  1  1  1  2  1  0  0  0  2  0  1  1  2  1  2
%% 1  1  0  2  0  2  0  1  1  2  1  0  0  2  1  1  1  1  0  1
%% 1  1  2  0  1  0  1  1  0  0  0  2  2  0  1  0  1  0  1  1
%% 0  0  1  1  1  1  1  2  0  1  0  0  1  1  0  1  2  0  2  1
%% 1  0  2  1  1  1  0  1  2  1  1  1  1  0  1  0  2  0  1  0
%% 0  1  0  0  1  0  0  0  0  1  0  1  1  1  2  2  0  1  2  0
%% 0  1  1  1  2  2  1  2  1  1  0  2  1  0  0  0  1  0  1  1
%% 0  1  0  1  1  1  0  1  1  1  0  1  0  1  2  1  2  1  0  1
%% 1  0  0  1  2  1  1  1  1  2  0  2  1  1  1  0  0  1  1  0
%Played Games - Lose Results:
%% 0  0  0  0  0  0  0  0  0  0  1  0  0  0  1  0  1  0  1  0
%% 0  0  1  0  0  0  0  0  1  0  1  0  0  0  1  1  0  0  0  1
%% 0  0  0  0  1  0  0  0  0  0  0  0  0  0  0  0  1  0  1  1
%% 0  0  0  0  0  0  0  0  0  0  0  0  0  1  0  0  1  0  0  0
%% 0  0  0  0  0  0  0  0  0  0  0  0  0  0  0  0  0  0  0  0
%% 0  0  0  0  1  0  0  1  0  0  0  0  0  1  0  0  1  0  0  0
%% 0  0  0  0  0  0  0  0  0  1  0  0  0  0  0  1  1  0  1  0
%% 1  0  0  0  1  0  0  0  1  0  0  0  0  0  0  0  1  0  0  0
%% 0  0  0  0  1  0  0  0  0  0  0  0  0  1  1  0  1  0  0  0
%% 0  0  0  0  0  1  0  1  1  0  0  0  0  1  0  0  0  0  0  0
%% 0  0  0  0  0  0  0  0  0  0  0  0  0  1  1  0  1  0  0  1
%% 1  1  1  0  0  0  0  0  0  0  1  0  0  0  1  0  0  0  0  0
%% 0  0  1  0  1  0  1  0  0  0  0  1  0  0  0  0  0  0  1  0
%% 0  0  0  0  0  0  0  0  0  0  0  0  0  0  0  0  0  0  0  0
%% 0  0  0  0  0  0  0  0  0  0  0  0  0  0  0  1  0  0  0  0
%% 0  0  0  0  0  0  0  0  0  0  0  0  0  1  0  0  0  0  0  0
%% 0  0  0  0  0  0  0  0  0  0  0  0  0  0  0  0  0  0  0  2
%% 1  0  0  0  0  0  0  0  0  0  1  0  0  1  1  1  0  0  0  0
%% 0  0  0  0  1  0  0  0  0  0  1  0  0  1  0  0  0  0  0  0
%% 0  0  0  0  0  0  0  0  0  0  0  0  0  0  0  1  0  0  0  0

%%Initial points:
iPoints=[25, 19, 25, 21, 35, 21, 21, 23, 25, 21, 29, 20, 18, 39, 34, 32, 37, 18, 28, 32];

%%Initial positions:
%iPositions=[11, 18, 10, 16, 3, 15, 14, 12, 9, 13, 7, 17, 20, 1, 4, 6, 2, 19, 8, 5];

%%Position Constraints:
%numberPositionConstraints=2;

%%Total Fixtures:
%totalFixtures=38;

%%Fixtures to Play:
%fixturesToPlay=15;

%%Position Constraints Built With
%wantedPoints=[3, 3, 1, 0, 0, 0, 3, 0, 0, 1, 1, 1, 3, 1, 1, 0, 0, 0, 1, 3, 3, 0, 1, 3, 1, 1, 0, 3, 1, 1, 0, 3, 0, 0, 3, 3, 0, 3, 0, 3, 1, 3, 3, 1, 1, 1, 1, 3, 3, 1, 3, 3, 0, 3, 3, 0, 1, 3, 3, 3, 3, 1, 1, 3, 3, 1, 1, 1, 0, 1, 3, 3, 1, 3, 0, 3, 0, 0, 1, 0, 1, 0, 0, 3, 3, 0, 1, 1, 3, 1, 1, 1, 3, 1, 1, 0, 1, 1, 0, 1, 0, 3, 1, 1, 3, 3, 3, 0, 0, 3, 1, 3, 1, 1, 0, 3, 1, 1, 0, 0, 1, 1, 0, 1, 0, 1, 0, 0, 0, 0, 1, 0, 0, 3, 3, 3, 1, 0, 0, 3, 1, 1, 3, 1, 3, 1, 0, 1, 3, 1];

%%Probabilities:
probabilities=[|92,4,0,4,|5,19,0,76,|84,12,0,4,|70,17,0,13,|57,25,0,18,|41,27,0,32,|63,36,0,1,|89,5,0,6,|50,15,0,35,|40,20,0,40,|41,59,0,0,|14,74,0,12,|13,70,0,17,|6,6,0,88,|51,7,0,42,|67,2,0,31,|10,57,0,33,|57,16,0,27,|73,25,0,2,|87,1,0,12,|65,25,0,10,|69,8,0,23,|20,36,0,44,|4,29,0,67,|78,3,0,19,|80,17,0,3,|9,47,0,44,|80,7,0,13,|39,54,0,7,|41,48,0,11,|83,5,0,12,|30,8,0,62,|84,6,0,10,|59,18,0,23,|37,28,0,35,|14,85,0,1,|90,0,0,10,|13,82,0,5,|61,28,0,11,|9,34,0,57,|65,29,0,6,|58,34,0,8,|62,21,0,17,|92,3,0,5,|62,4,0,34,|65,11,0,24,|39,46,0,15,|82,1,0,17,|16,48,0,36,|36,15,0,49,|35,15,0,50,|51,15,0,34,|75,12,0,13,|1,55,0,44,|6,70,0,24,|92,2,0,6,|36,27,0,37,|23,35,0,42,|92,6,0,2,|28,13,0,59,|1,29,0,70,|93,1,0,6,|8,89,0,3,|100,0,0,0,|12,61,0,27,|25,52,0,23,|9,5,0,86,|58,30,0,12,|46,30,0,24,|8,68,0,24,|49,21,0,30,|49,45,0,6,|15,26,0,59,|34,32,0,34,|39,19,0,42,|14,85,0,1,|16,54,0,30,|67,3,0,30,|8,33,0,59,|44,16,0,40,|13,50,0,37,|4,3,0,93,|80,14,0,6,|39,3,0,58,|6,55,0,39,|65,31,0,4,|45,44,0,11,|6,34,0,60,|68,3,0,29,|69,14,0,17,|56,27,0,17,|57,35,0,8,|48,11,0,41,|82,17,0,1,|8,51,0,41,|89,3,0,8,|91,0,0,9,|31,17,0,52,|42,28,0,30,|83,14,0,3,|0,68,0,32,|81,8,0,11,|22,18,0,60,|88,3,0,9,|16,33,0,51,|86,8,0,6,|57,20,0,23,|16,65,0,19,|68,25,0,7,|69,24,0,7,|41,53,0,6,|20,13,0,67,|2,33,0,65,|46,51,0,3,|65,10,0,25,|10,9,0,81,|90,9,0,1,|93,3,0,4,|7,69,0,24,|56,24,0,20,|3,23,0,74,|46,29,0,25,|11,20,0,69,|42,33,0,25,|2,81,0,17,|75,14,0,11,|87,6,0,7,|41,22,0,37,|55,43,0,2,|4,56,0,40,|64,21,0,15,|61,19,0,20,|50,6,0,44,|67,14,0,19,|40,41,0,19,|98,2,0,0,|60,26,0,14,|95,3,0,2,|17,33,0,50,|77,19,0,4,|75,19,0,6,|41,22,0,37,|84,15,0,1,|53,36,0,11,|38,56,0,6,|46,4,0,50,|69,15,0,16,|29,68,0,3,|72,22,0,6,|53,21,0,26,|];


%POSITION CONSTRAINTS
%%[|teamID, operator, position|...]
%%operators index:
%%%1 for =  operator
%%%2 for >  operator
%%%3 for >= operator
%%%4 for <  operator
%%%5 for <= operator

positionConstraints=[|16,1,5|20,1,4|];

%SCORE VECTOR CONSTRAINTS
%%[|teamID, operator, wantedPoints|...]
%%operators index:
%%%1 for =  operator
%%%2 for >  operator
%%%3 for >= operator
%%%4 for <  operator
%%%5 for <= operator

%scoreVectorConstraints=[|16,1,54|20,1,54|];

%Instance Features:
%features=T,FP,TF,C,C/T,C/TF,FP/TF,FP/T,FP*C/T,FP*T/C,(C/T)*(FP/TF),Distance,Distance/C,Distance/T,Distance/(C*T)
%values=20,15,38,2,0.1,0.05263157894736842,0.3947368421052632,0.75,1.5,150.0,0.03947368421052632,2,1.0,0.1,0.05



